1764116
77,9,37,26,41,38,72,57,75,86,27,69,70,14,39,31,49,11,97,56,103,30,95,32,61,43,6,85,4,67,79,23,15,64,10,109,90,45,35,98,101,52,34,82,5,1,29,81,51,84,59,25,3,22,104,89,91,47,71,65,12,55,68,40,8,33,78,28,36,99,50,105,7,76,93,108,13,42,18,87,62,73,19,106,60,88,96,53,100,102,54,58,21,17,80,48,74,92,44,20,63,2,46,107,94,16,83,24,66